(set-option :produce-models true)
(set-logic QF_UF)
(declare-fun p0() Bool)
(declare-fun p12() Bool)
(declare-fun p6() Bool)
(declare-fun p9() Bool)
(declare-fun p10() Bool)
(declare-fun p16() Bool)
(declare-fun p11() Bool)
(declare-fun p19() Bool)
(declare-fun p4() Bool)
(declare-fun p2() Bool)
(declare-fun p7() Bool)
(declare-fun p3() Bool)
(declare-fun p17() Bool)
(declare-fun p13() Bool)
(declare-fun p18() Bool)
(declare-fun p1() Bool)
(declare-fun p15() Bool)
(declare-fun p5() Bool)
(declare-fun p14() Bool)
(declare-fun p8() Bool)
(assert
(and (or (not p0) (not p12) p6) (or p9 p10 (not p16)) (or (not p11) p19 (not p6)) (or (not p6) (not p4) p2) (or p7 (not p2) (not p2)) (or p19 (not p9) p4) (or (not p10) (not p3) (not p17)) (or (not p13) p10 p9) (or p2 (not p13) (not p18)) (or (not p2) (not p7) (not p16)) (or (not p6) p19 p3) (or (not p0) p4 p11) (or p1 p12 p13) (or (not p19) p7 (not p9)) (or (not p18) (not p18) p9) (or p15 (not p18) (not p5)) (or (not p7) p6 (not p2)) (or (not p15) p12 (not p19)) (or (not p9) p14 p19) (or (not p3) p15 (not p9)) (or p2 (not p12) p6) (or p18 (not p3) (not p12)) (or (not p10) (not p9) p0) (or (not p4) p19 (not p8)) (or (not p15) p6 p18) (or (not p5) (not p11) (not p6)) (or (not p0) p13 (not p2)) (or p14 p10 p10) (or (not p3) p1 p18) (or (not p3) p19 p2) (or (not p15) (not p19) (not p10)) (or (not p18) (not p1) (not p3)) (or (not p17) (not p11) p7) (or (not p2) (not p0) p17) (or p2 p2 p17) (or (not p11) p16 (not p13)) (or p12 (not p7) (not p18)) (or (not p16) p9 p14) (or p6 p14 (not p11)) (or p5 (not p19) (not p8)) (or p4 (not p9) (not p5)) (or p9 (not p13) p19) (or (not p15) p13 (not p1)) (or (not p9) p2 p13) (or (not p16) (not p14) p11) (or p14 (not p5) p6) (or p2 (not p5) p18) (or p4 (not p7) p6) (or p3 (not p4) (not p16)) (or (not p19) (not p19) (not p7)) (or p15 p16 (not p10)) (or p11 p3 (not p17)) (or p17 p1 (not p15)) (or (not p9) p4 p15) (or (not p6) p1 (not p4)) (or p11 (not p9) p13) (or (not p17) (not p2) p16) (or p10 p0 p15) (or p17 p13 p2) (or (not p3) (not p16) (not p6)) (or p17 p4 (not p10)) (or p18 p12 p16) (or (not p9) p18 p11) (or p13 (not p4) (not p12)) (or p10 p11 p2) (or p4 p2 (not p0)) (or p18 (not p10) p16) (or p14 p16 p5) (or (not p18) p4 (not p10)) (or p19 (not p2) (not p5)) (or p0 p8 p15) (or (not p10) p2 (not p5)) (or (not p16) (not p1) p1) (or p12 p17 (not p14)) (or (not p12) p12 (not p2)) (or p12 (not p14) (not p0)) (or (not p11) p2 p0) (or p15 (not p1) (not p15)) (or p4 (not p2) p4) (or (not p16) p19 (not p8)) (or p19 (not p2) (not p10)) (or p18 (not p12) p3) (or (not p17) p2 p11) (or p8 p5 (not p9)) (or (not p14) (not p4) p5) (or p2 p19 (not p5)) (or (not p6) p3 (not p19)))
)
(check-sat)
(get-model)
